<number of tasks>
89

<cycle time>
16

<task times>
1 1
2 2
3 3
4 4
5 5
6 6
7 7
8 8
9 9
10 10
11 1
12 2
13 3
14 4
15 5
16 6
17 7
18 8
19 9
20 10
21 1
22 2
23 3
24 4
25 5
26 6
27 7
28 8
29 9
30 10
31 1
32 2
33 3
34 4
35 5
36 6
37 7
38 8
39 9
40 10
41 1
42 2
43 3
44 4
45 5
46 6
47 7
48 8
49 9
50 10
51 1
52 2
53 3
54 4
55 5
56 6
57 7
58 8
59 9
60 10
61 1
62 2
63 3
64 4
65 5
66 6
67 7
68 8
69 9
70 10
71 1
72 2
73 3
74 4
75 5
76 6
77 7
78 8
79 9
80 10
81 1
82 2
83 3
84 4
85 5
86 6
87 7
88 8
89 9

<precedence relations>
1,2
2,3
3,4
4,5
4,6
4,7
4,8
4,9
5,10
6,11
7,12
8,18
9,18
10,14
11,12
12,13
13,14
14,15
14,16
15,17
16,54
17,18
18,19
18,20
19,22
20,21
20,28
21,54
22,23
23,24
24,25
25,26
25,27
25,29
26,37
27,33
28,29
29,31
30,54
31,32
32,33
33,34
34,35
35,36
35,37
36,38
37,38
38,39
39,40
39,41
39,42
39,43
40,44
41,53
42,53
43,45
44,52
45,46
46,47
47,48
47,49
49,50
50,51
51,52
52,53
53,68
53,69
53,70
53,71
54,55
55,56
56,57
57,58
57,59
57,60
57,61
57,62
57,63
57,64
57,65
57,66
58,67
59,67
60,67
61,67
62,67
63,67
64,67
65,67
66,67
67,73
68,72
69,72
70,72
71,73
72,78
72,80
73,74
74,75
74,76
75,77
76,81
77,78
78,79
79,81
80,81
81,82
81,84
81,85
82,83
83,86
84,86
85,86
86,87
87,88
87,89

<setup times forward>
4,6:1
4,7:1
4,8:1
4,9:1
5,6:1
5,7:1
5,8:1
5,9:1
5,10:1
6,5:1
6,7:2
6,9:2
6,11:1
6,30:1
7,5:1
7,6:2
7,8:2
7,10:2
7,11:1
7,12:1
7,30:1
8,5:1
8,7:2
8,9:2
8,11:1
8,12:1
8,13:1
8,14:1
8,15:1
8,16:1
8,17:1
8,30:1
9,5:1
9,6:2
9,8:2
9,10:2
9,11:1
9,12:1
9,13:1
9,14:1
9,15:1
9,16:1
9,17:1
9,18:2
9,30:1
10,7:2
10,9:2
10,11:1
10,12:1
10,13:1
10,14:1
10,30:1
11,7:1
11,8:1
11,9:1
11,10:1
12,8:1
12,9:1
12,10:1
13,8:1
13,9:1
13,10:1
14,8:1
14,9:1
15,8:1
15,9:1
16,8:1
16,9:1
16,18:1
16,19:2
16,21:2
16,22:2
16,23:1
16,24:1
16,25:1
16,26:2
16,27:1
16,28:1
16,29:2
16,31:2
16,36:1
16,37:1
16,38:2
16,39:2
16,40:1
16,41:1
16,42:2
16,43:2
16,44:1
16,45:1
16,46:1
16,48:2
16,50:1
16,51:1
16,52:1
16,53:2
16,54:2
16,68:2
16,69:1
16,70:1
16,71:1
16,72:1
16,80:2
17,8:1
17,9:1
17,18:1
18,16:1
18,19:1
18,20:1
18,30:1
19,16:2
19,20:2
19,28:3
19,30:2
19,55:3
19,56:2
19,57:2
19,59:3
19,60:1
19,61:2
19,63:3
19,64:2
19,66:3
19,67:3
20,19:2
20,21:2
20,22:2
20,23:1
20,24:1
20,25:1
20,26:2
20,27:1
20,28:1
21,16:2
21,23:3
21,24:1
21,25:1
21,27:1
21,28:3
21,30:2
21,32:2
21,33:2
21,34:2
21,35:2
21,36:3
21,37:3
21,40:3
21,41:3
21,44:3
21,45:3
21,46:1
21,47:2
21,49:2
21,50:3
21,51:3
21,52:3
21,69:3
21,70:1
21,71:1
21,72:1
22,16:2
22,20:2
22,23:3
22,28:3
22,30:2
22,55:3
22,56:2
22,57:2
22,59:3
22,60:1
22,61:2
22,63:3
22,64:2
22,66:3
22,67:3
23,16:1
23,20:1
23,21:3
23,24:2
23,30:1
23,54:3
23,56:1
23,57:1
23,58:3
23,60:2
23,61:1
23,62:3
23,64:1
23,65:3
24,16:1
24,20:1
24,21:1
24,28:2
24,30:1
24,54:1
24,55:2
24,56:1
24,57:1
24,58:1
24,59:2
24,61:1
24,62:1
24,63:2
24,64:1
24,65:1
24,66:2
24,67:2
25,16:1
25,20:1
25,21:1
25,26:1
25,28:2
25,29:1
25,30:1
25,54:1
25,55:2
25,56:1
25,57:1
25,58:1
25,59:2
25,61:1
25,62:1
25,63:2
25,64:1
25,65:1
25,66:2
25,67:2
26,16:2
26,20:2
26,27:1
26,28:3
26,30:2
26,32:2
26,33:2
26,34:2
26,35:2
26,36:3
26,37:3
26,55:3
26,56:2
26,57:2
26,59:3
26,60:1
26,61:2
26,63:3
26,64:2
26,66:3
26,67:3
27,16:1
27,20:1
27,21:1
27,26:1
27,28:2
27,29:1
27,30:1
27,31:1
27,32:1
27,33:1
27,54:1
27,55:2
27,56:1
27,57:1
27,58:1
27,59:2
27,61:1
27,62:1
27,63:2
27,64:1
27,65:1
27,66:2
27,67:2
28,16:1
28,19:3
28,21:3
28,22:3
28,24:2
28,25:2
28,26:3
28,27:2
28,29:3
28,30:1
28,54:3
28,56:1
28,57:1
28,58:3
28,60:2
28,61:1
28,62:3
28,64:1
28,65:3
29,16:2
29,27:1
29,30:2
29,55:3
29,56:2
29,57:2
29,59:3
29,60:1
29,61:2
29,63:3
29,64:2
29,66:3
29,67:3
30,6:1
30,7:1
30,8:1
30,9:1
30,10:1
30,18:1
30,19:2
30,21:2
30,22:2
30,23:1
30,24:1
30,25:1
30,26:2
30,27:1
30,28:1
30,29:2
30,31:2
30,36:1
30,37:1
30,38:2
30,39:2
30,40:1
30,41:1
30,42:2
30,43:2
30,44:1
30,45:1
30,46:1
30,48:2
30,50:1
30,51:1
30,52:1
30,53:2
30,54:2
30,68:2
30,69:1
30,70:1
30,71:1
30,72:1
30,80:2
31,16:2
31,27:1
31,30:2
31,32:2
31,55:3
31,56:2
31,57:2
31,59:3
31,60:1
31,61:2
31,63:3
31,64:2
31,66:3
31,67:3
32,21:2
32,26:2
32,27:1
32,54:2
32,55:1
32,58:2
32,59:1
32,60:1
32,62:2
32,63:1
32,65:2
32,66:1
32,67:1
33,21:2
33,26:2
33,54:2
33,55:1
33,58:2
33,59:1
33,60:1
33,62:2
33,63:1
33,65:2
33,66:1
33,67:1
34,21:2
34,26:2
34,54:2
34,55:1
34,58:2
34,59:1
34,60:1
34,62:2
34,63:1
34,65:2
34,66:1
34,67:1
35,21:2
35,26:2
35,36:1
35,37:1
35,54:2
35,55:1
35,58:2
35,59:1
35,60:1
35,62:2
35,63:1
35,65:2
35,66:1
35,67:1
36,16:1
36,21:3
36,26:3
36,30:1
36,38:3
36,54:3
36,56:1
36,57:1
36,58:3
36,60:2
36,61:1
36,62:3
36,64:1
36,65:3
37,16:1
37,21:3
37,30:1
37,38:3
37,54:3
37,56:1
37,57:1
37,58:3
37,60:2
37,61:1
37,62:3
37,64:1
37,65:3
38,16:2
38,30:2
38,55:3
38,56:2
38,57:2
38,59:3
38,60:1
38,61:2
38,63:3
38,64:2
38,66:3
38,67:3
39,16:2
39,30:2
39,40:3
39,41:3
39,55:3
39,56:2
39,57:2
39,59:3
39,60:1
39,61:2
39,63:3
39,64:2
39,66:3
39,67:3
40,16:1
40,21:3
40,30:1
40,42:3
40,43:3
40,46:2
40,47:1
40,48:3
40,49:1
40,54:3
40,56:1
40,57:1
40,58:3
40,60:2
40,61:1
40,62:3
40,64:1
40,65:3
41,16:1
41,21:3
41,30:1
41,42:3
41,43:3
41,46:2
41,47:1
41,48:3
41,49:1
41,53:3
41,54:3
41,56:1
41,57:1
41,58:3
41,60:2
41,61:1
41,62:3
41,64:1
41,65:3
42,16:2
42,30:2
42,40:3
42,41:3
42,44:3
42,45:3
42,46:1
42,47:2
42,49:2
42,50:3
42,51:3
42,52:3
42,55:3
42,56:2
42,57:2
42,59:3
42,60:1
42,61:2
42,63:3
42,64:2
42,66:3
42,67:3
43,16:2
43,30:2
43,40:3
43,41:3
43,44:3
43,45:3
43,55:3
43,56:2
43,57:2
43,59:3
43,60:1
43,61:2
43,63:3
43,64:2
43,66:3
43,67:3
44,16:1
44,21:3
44,30:1
44,42:3
44,43:3
44,46:2
44,47:1
44,48:3
44,49:1
44,54:3
44,56:1
44,57:1
44,58:3
44,60:2
44,61:1
44,62:3
44,64:1
44,65:3
45,16:1
45,21:3
45,30:1
45,42:3
45,46:2
45,54:3
45,56:1
45,57:1
45,58:3
45,60:2
45,61:1
45,62:3
45,64:1
45,65:3
46,16:1
46,21:1
46,30:1
46,40:2
46,41:2
46,42:1
46,44:2
46,47:1
46,54:1
46,55:2
46,56:1
46,57:1
46,58:1
46,59:2
46,61:1
46,62:1
46,63:2
46,64:1
46,65:1
46,66:2
46,67:2
47,21:2
47,40:1
47,41:1
47,42:2
47,44:1
47,48:2
47,54:2
47,55:1
47,58:2
47,59:1
47,60:1
47,62:2
47,63:1
47,65:2
47,66:1
47,67:1
48,16:2
48,30:2
48,40:3
48,41:3
48,44:3
48,49:2
48,50:3
48,51:3
48,52:3
48,55:3
48,56:2
48,57:2
48,59:3
48,60:1
48,61:2
48,63:3
48,64:2
48,66:3
48,67:3
48,69:3
48,70:1
48,71:1
48,72:1
48,73:1
48,74:1
48,75:1
48,77:1
48,79:2
48,81:2
48,84:2
48,87:2
48,88:2
48,89:3
49,21:2
49,40:1
49,41:1
49,42:2
49,44:1
49,48:2
49,50:1
49,54:2
49,55:1
49,58:2
49,59:1
49,60:1
49,62:2
49,63:1
49,65:2
49,66:1
49,67:1
50,16:1
50,21:3
50,30:1
50,42:3
50,48:3
50,54:3
50,56:1
50,57:1
50,58:3
50,60:2
50,61:1
50,62:3
50,64:1
50,65:3
51,16:1
51,21:3
51,30:1
51,42:3
51,48:3
51,54:3
51,56:1
51,57:1
51,58:3
51,60:2
51,61:1
51,62:3
51,64:1
51,65:3
52,16:1
52,21:3
52,30:1
52,42:3
52,48:3
52,53:3
52,54:3
52,56:1
52,57:1
52,58:3
52,60:2
52,61:1
52,62:3
52,64:1
52,65:3
53,16:2
53,30:2
53,55:3
53,56:2
53,57:2
53,59:3
53,60:1
53,61:2
53,63:3
53,64:2
53,66:3
53,67:3
53,69:3
53,70:1
53,71:1
54,23:3
54,24:1
54,25:1
54,27:1
54,28:3
54,32:2
54,33:2
54,34:2
54,35:2
54,36:3
54,37:3
54,40:3
54,41:3
54,44:3
54,45:3
54,46:1
54,47:2
54,49:2
54,50:3
54,51:3
54,52:3
54,55:3
54,69:3
54,70:1
54,71:1
54,72:1
55,19:3
55,22:3
55,24:2
55,25:2
55,26:3
55,27:2
55,29:3
55,31:3
55,32:1
55,33:1
55,34:1
55,35:1
55,38:3
55,39:3
55,42:3
55,43:3
55,46:2
55,47:1
55,48:3
55,49:1
55,53:3
55,56:1
55,68:3
55,70:2
55,71:2
55,72:2
55,80:3
56,19:2
56,22:2
56,23:1
56,24:1
56,25:1
56,26:2
56,27:1
56,28:1
56,29:2
56,31:2
56,36:1
56,37:1
56,38:2
56,39:2
56,40:1
56,41:1
56,42:2
56,43:2
56,44:1
56,45:1
56,46:1
56,48:2
56,50:1
56,51:1
56,52:1
56,53:2
56,68:2
56,69:1
56,70:1
56,71:1
56,72:1
56,80:2
57,19:2
57,22:2
57,23:1
57,24:1
57,25:1
57,26:2
57,27:1
57,28:1
57,29:2
57,31:2
57,36:1
57,37:1
57,38:2
57,39:2
57,40:1
57,41:1
57,42:2
57,43:2
57,44:1
57,45:1
57,46:1
57,48:2
57,50:1
57,51:1
57,52:1
57,53:2
57,58:2
57,59:1
57,60:1
57,62:2
57,63:1
57,65:2
57,66:1
57,68:2
57,69:1
57,70:1
57,71:1
57,72:1
57,80:2
58,23:3
58,24:1
58,25:1
58,27:1
58,28:3
58,32:2
58,33:2
58,34:2
58,35:2
58,36:3
58,37:3
58,40:3
58,41:3
58,44:3
58,45:3
58,46:1
58,47:2
58,49:2
58,50:3
58,51:3
58,52:3
58,59:3
58,60:1
58,61:2
58,63:3
58,64:2
58,66:3
58,67:3
58,69:3
58,70:1
58,71:1
58,72:1
59,19:3
59,22:3
59,24:2
59,25:2
59,26:3
59,27:2
59,29:3
59,31:3
59,32:1
59,33:1
59,34:1
59,35:1
59,38:3
59,39:3
59,42:3
59,43:3
59,46:2
59,47:1
59,48:3
59,49:1
59,53:3
59,58:3
59,60:2
59,61:1
59,62:3
59,64:1
59,65:3
59,68:3
59,70:2
59,71:2
59,72:2
59,80:3
60,19:1
60,22:1
60,23:2
60,26:1
60,28:2
60,29:1
60,31:1
60,32:1
60,33:1
60,34:1
60,35:1
60,36:2
60,37:2
60,38:1
60,39:1
60,40:2
60,41:2
60,42:1
60,43:1
60,44:2
60,45:2
60,47:1
60,48:1
60,49:1
60,50:2
60,51:2
60,52:2
60,53:1
60,58:1
60,59:2
60,61:1
60,62:1
60,63:2
60,64:1
60,65:1
60,66:2
60,67:2
60,68:1
60,69:2
60,80:1
61,19:2
61,22:2
61,23:1
61,24:1
61,25:1
61,26:2
61,27:1
61,28:1
61,29:2
61,31:2
61,36:1
61,37:1
61,38:2
61,39:2
61,40:1
61,41:1
61,42:2
61,43:2
61,44:1
61,45:1
61,46:1
61,48:2
61,50:1
61,51:1
61,52:1
61,53:2
61,58:2
61,59:1
61,60:1
61,62:2
61,63:1
61,65:2
61,66:1
61,67:1
61,68:2
61,69:1
61,70:1
61,71:1
61,72:1
61,80:2
62,23:3
62,24:1
62,25:1
62,27:1
62,28:3
62,32:2
62,33:2
62,34:2
62,35:2
62,36:3
62,37:3
62,40:3
62,41:3
62,44:3
62,45:3
62,46:1
62,47:2
62,49:2
62,50:3
62,51:3
62,52:3
62,59:3
62,60:1
62,61:2
62,63:3
62,64:2
62,66:3
62,67:3
62,69:3
62,70:1
62,71:1
62,72:1
63,19:3
63,22:3
63,24:2
63,25:2
63,26:3
63,27:2
63,29:3
63,31:3
63,32:1
63,33:1
63,34:1
63,35:1
63,38:3
63,39:3
63,42:3
63,43:3
63,46:2
63,47:1
63,48:3
63,49:1
63,53:3
63,58:3
63,60:2
63,61:1
63,62:3
63,64:1
63,65:3
63,68:3
63,70:2
63,71:2
63,72:2
63,80:3
64,19:2
64,22:2
64,23:1
64,24:1
64,25:1
64,26:2
64,27:1
64,28:1
64,29:2
64,31:2
64,36:1
64,37:1
64,38:2
64,39:2
64,40:1
64,41:1
64,42:2
64,43:2
64,44:1
64,45:1
64,46:1
64,48:2
64,50:1
64,51:1
64,52:1
64,53:2
64,58:2
64,59:1
64,60:1
64,62:2
64,63:1
64,65:2
64,66:1
64,67:1
64,68:2
64,69:1
64,70:1
64,71:1
64,72:1
64,80:2
65,23:3
65,24:1
65,25:1
65,27:1
65,28:3
65,32:2
65,33:2
65,34:2
65,35:2
65,36:3
65,37:3
65,40:3
65,41:3
65,44:3
65,45:3
65,46:1
65,47:2
65,49:2
65,50:3
65,51:3
65,52:3
65,59:3
65,60:1
65,61:2
65,63:3
65,64:2
65,66:3
65,67:3
65,69:3
65,70:1
65,71:1
65,72:1
66,19:3
66,22:3
66,24:2
66,25:2
66,26:3
66,27:2
66,29:3
66,31:3
66,32:1
66,33:1
66,34:1
66,35:1
66,38:3
66,39:3
66,42:3
66,43:3
66,46:2
66,47:1
66,48:3
66,49:1
66,53:3
66,58:3
66,60:2
66,61:1
66,62:3
66,64:1
66,65:3
66,68:3
66,70:2
66,71:2
66,72:2
66,80:3
67,19:3
67,22:3
67,24:2
67,25:2
67,26:3
67,27:2
67,29:3
67,31:3
67,32:1
67,33:1
67,34:1
67,35:1
67,38:3
67,39:3
67,42:3
67,43:3
67,46:2
67,47:1
67,48:3
67,49:1
67,53:3
67,68:3
67,70:2
67,71:2
67,72:2
67,73:2
67,80:3
68,16:2
68,30:2
68,55:3
68,56:2
68,57:2
68,59:3
68,60:1
68,61:2
68,63:3
68,64:2
68,66:3
68,67:3
68,69:3
68,70:1
68,71:1
68,72:1
68,73:1
68,74:1
68,75:1
68,77:1
69,16:1
69,21:3
69,30:1
69,48:3
69,54:3
69,56:1
69,57:1
69,58:3
69,60:2
69,61:1
69,62:3
69,64:1
69,65:3
69,68:3
69,70:2
69,71:2
69,72:2
69,73:2
69,74:2
69,75:2
69,76:3
69,77:2
70,16:1
70,21:1
70,30:1
70,48:1
70,54:1
70,55:2
70,56:1
70,57:1
70,58:1
70,59:2
70,61:1
70,62:1
70,63:2
70,64:1
70,65:1
70,66:2
70,67:2
70,68:1
70,69:2
70,76:1
71,16:1
71,21:1
71,30:1
71,48:1
71,54:1
71,55:2
71,56:1
71,57:1
71,58:1
71,59:2
71,61:1
71,62:1
71,63:2
71,64:1
71,65:1
71,66:2
71,67:2
71,68:1
71,69:2
71,80:1
72,16:1
72,21:1
72,30:1
72,48:1
72,54:1
72,55:2
72,56:1
72,57:1
72,58:1
72,59:2
72,61:1
72,62:1
72,63:2
72,64:1
72,65:1
72,66:2
72,67:2
72,76:1
72,78:1
72,80:1
73,48:1
73,68:1
73,69:2
73,80:1
74,48:1
74,68:1
74,69:2
74,76:1
74,80:1
75,48:1
75,68:1
75,69:2
75,76:1
75,80:1
76,69:3
76,70:1
76,72:1
76,75:1
76,77:1
76,79:2
76,81:2
77,48:1
77,68:1
77,69:2
77,76:1
77,78:1
77,80:1
78,79:2
79,48:2
79,76:2
79,80:2
80,16:2
80,30:2
80,55:3
80,56:2
80,57:2
80,59:3
80,60:1
80,61:2
80,63:3
80,64:2
80,66:3
80,67:3
80,71:1
80,73:1
80,74:1
80,75:1
80,77:1
80,79:2
80,81:2
81,48:2
81,82:2
81,85:2
82,84:2
83,84:2
84,48:2
84,82:2
84,83:2
84,85:2
84,86:2
85,84:2
86,87:2
87,48:2
87,89:1
88,48:2
88,89:1
89,48:3
89,88:1

<setup times backward>
5,6:1
5,8:1
7,1:1
7,2:1
7,3:1
7,4:1
7,5:1
7,6:2
7,8:2
7,10:2
7,11:1
7,30:1
9,1:1
9,2:1
9,3:1
9,4:1
9,5:1
9,6:2
9,8:2
9,10:2
9,11:1
9,12:1
9,13:1
9,14:1
9,15:1
9,16:1
9,17:1
9,30:1
11,6:1
11,8:1
11,10:1
12,6:1
12,8:1
12,10:1
13,6:1
13,8:1
13,10:1
14,6:1
14,8:1
14,10:1
15,6:1
15,8:1
15,10:1
16,6:1
16,8:1
16,10:1
16,18:1
16,19:2
16,21:2
16,22:2
16,24:1
16,25:1
16,26:2
16,27:1
16,29:2
16,31:2
16,38:2
16,39:2
16,42:2
16,43:2
16,46:1
16,48:2
16,53:2
16,68:2
16,70:1
16,71:1
16,72:1
16,80:2
17,6:1
17,8:1
17,10:1
20,6:1
20,8:1
20,10:1
20,18:1
20,19:2
20,22:2
20,24:1
20,25:1
20,26:2
20,27:1
23,1:1
23,2:1
23,3:1
23,4:1
23,5:1
23,6:2
23,8:2
23,10:2
23,11:1
23,12:1
23,13:1
23,14:1
23,15:1
23,16:1
23,17:1
23,18:2
23,19:3
23,20:1
23,21:3
23,22:3
23,30:1
23,54:3
23,56:1
23,57:1
23,58:3
23,60:2
23,61:1
23,62:3
23,64:1
23,65:3
24,19:1
24,21:1
24,22:1
24,54:1
24,58:1
24,62:1
24,65:1
25,19:1
25,21:1
25,22:1
25,54:1
25,58:1
25,62:1
25,65:1
27,19:1
27,21:1
27,22:1
27,26:1
27,29:1
27,31:1
27,54:1
27,58:1
27,62:1
27,65:1
28,1:1
28,2:1
28,3:1
28,4:1
28,5:1
28,6:2
28,8:2
28,10:2
28,11:1
28,12:1
28,13:1
28,14:1
28,15:1
28,16:1
28,17:1
28,18:2
28,19:3
28,20:1
28,21:3
28,22:3
28,24:2
28,25:2
28,26:3
28,27:2
28,30:1
28,54:3
28,56:1
28,57:1
28,58:3
28,60:2
28,61:1
28,62:3
28,64:1
28,65:3
30,6:1
30,8:1
30,10:1
30,18:1
30,19:2
30,21:2
30,22:2
30,24:1
30,25:1
30,26:2
30,27:1
30,29:2
30,31:2
30,38:2
30,39:2
30,42:2
30,43:2
30,46:1
30,48:2
30,53:2
30,68:2
30,70:1
30,71:1
30,72:1
30,80:2
32,6:1
32,8:1
32,10:1
32,18:1
32,19:2
32,21:2
32,22:2
32,24:1
32,25:1
32,26:2
32,27:1
32,29:2
32,31:2
32,54:2
32,58:2
32,60:1
32,62:2
32,65:2
33,6:1
33,8:1
33,10:1
33,18:1
33,19:2
33,21:2
33,22:2
33,24:1
33,25:1
33,26:2
33,27:1
33,29:2
33,31:2
33,54:2
33,58:2
33,60:1
33,62:2
33,65:2
34,6:1
34,8:1
34,10:1
34,18:1
34,19:2
34,21:2
34,22:2
34,24:1
34,25:1
34,26:2
34,27:1
34,29:2
34,31:2
34,54:2
34,58:2
34,60:1
34,62:2
34,65:2
35,6:1
35,8:1
35,10:1
35,18:1
35,19:2
35,21:2
35,22:2
35,24:1
35,25:1
35,26:2
35,27:1
35,29:2
35,31:2
35,54:2
35,58:2
35,60:1
35,62:2
35,65:2
36,1:1
36,2:1
36,3:1
36,4:1
36,5:1
36,6:2
36,8:2
36,10:2
36,11:1
36,12:1
36,13:1
36,14:1
36,15:1
36,16:1
36,17:1
36,18:2
36,19:3
36,20:1
36,21:3
36,22:3
36,24:2
36,25:2
36,26:3
36,27:2
36,29:3
36,30:1
36,31:3
36,32:1
36,33:1
36,34:1
36,35:1
36,54:3
36,56:1
36,57:1
36,58:3
36,60:2
36,61:1
36,62:3
36,64:1
36,65:3
37,1:1
37,2:1
37,3:1
37,4:1
37,5:1
37,6:2
37,8:2
37,10:2
37,11:1
37,12:1
37,13:1
37,14:1
37,15:1
37,16:1
37,17:1
37,18:2
37,19:3
37,20:1
37,21:3
37,22:3
37,24:2
37,25:2
37,26:3
37,27:2
37,29:3
37,30:1
37,31:3
37,32:1
37,33:1
37,34:1
37,35:1
37,54:3
37,56:1
37,57:1
37,58:3
37,60:2
37,61:1
37,62:3
37,64:1
37,65:3
40,1:1
40,2:1
40,3:1
40,4:1
40,5:1
40,6:2
40,8:2
40,10:2
40,11:1
40,12:1
40,13:1
40,14:1
40,15:1
40,16:1
40,17:1
40,18:2
40,19:3
40,20:1
40,21:3
40,22:3
40,24:2
40,25:2
40,26:3
40,27:2
40,29:3
40,30:1
40,31:3
40,32:1
40,33:1
40,34:1
40,35:1
40,38:3
40,39:3
40,42:3
40,43:3
40,46:2
40,47:1
40,48:3
40,49:1
40,54:3
40,56:1
40,57:1
40,58:3
40,60:2
40,61:1
40,62:3
40,64:1
40,65:3
41,1:1
41,2:1
41,3:1
41,4:1
41,5:1
41,6:2
41,8:2
41,10:2
41,11:1
41,12:1
41,13:1
41,14:1
41,15:1
41,16:1
41,17:1
41,18:2
41,19:3
41,20:1
41,21:3
41,22:3
41,24:2
41,25:2
41,26:3
41,27:2
41,29:3
41,30:1
41,31:3
41,32:1
41,33:1
41,34:1
41,35:1
41,38:3
41,39:3
41,42:3
41,43:3
41,46:2
41,47:1
41,48:3
41,49:1
41,54:3
41,56:1
41,57:1
41,58:3
41,60:2
41,61:1
41,62:3
41,64:1
41,65:3
44,1:1
44,2:1
44,3:1
44,4:1
44,5:1
44,6:2
44,8:2
44,10:2
44,11:1
44,12:1
44,13:1
44,14:1
44,15:1
44,16:1
44,17:1
44,18:2
44,19:3
44,20:1
44,21:3
44,22:3
44,24:2
44,25:2
44,26:3
44,27:2
44,29:3
44,30:1
44,31:3
44,32:1
44,33:1
44,34:1
44,35:1
44,38:3
44,39:3
44,42:3
44,43:3
44,46:2
44,47:1
44,48:3
44,49:1
44,54:3
44,56:1
44,57:1
44,58:3
44,60:2
44,61:1
44,62:3
44,64:1
44,65:3
45,1:1
45,2:1
45,3:1
45,4:1
45,5:1
45,6:2
45,8:2
45,10:2
45,11:1
45,12:1
45,13:1
45,14:1
45,15:1
45,16:1
45,17:1
45,18:2
45,19:3
45,20:1
45,21:3
45,22:3
45,24:2
45,25:2
45,26:3
45,27:2
45,29:3
45,30:1
45,31:3
45,32:1
45,33:1
45,34:1
45,35:1
45,38:3
45,39:3
45,42:3
45,43:3
45,54:3
45,56:1
45,57:1
45,58:3
45,60:2
45,61:1
45,62:3
45,64:1
45,65:3
46,19:1
46,21:1
46,22:1
46,26:1
46,29:1
46,31:1
46,38:1
46,39:1
46,42:1
46,43:1
46,54:1
46,58:1
46,62:1
46,65:1
47,6:1
47,8:1
47,10:1
47,18:1
47,19:2
47,21:2
47,22:2
47,24:1
47,25:1
47,26:2
47,27:1
47,29:2
47,31:2
47,38:2
47,39:2
47,42:2
47,43:2
47,46:1
47,54:2
47,58:2
47,60:1
47,62:2
47,65:2
49,6:1
49,8:1
49,10:1
49,18:1
49,19:2
49,21:2
49,22:2
49,24:1
49,25:1
49,26:2
49,27:1
49,29:2
49,31:2
49,38:2
49,39:2
49,42:2
49,43:2
49,46:1
49,48:2
49,54:2
49,58:2
49,60:1
49,62:2
49,65:2
50,1:1
50,2:1
50,3:1
50,4:1
50,5:1
50,6:2
50,8:2
50,10:2
50,11:1
50,12:1
50,13:1
50,14:1
50,15:1
50,16:1
50,17:1
50,18:2
50,19:3
50,20:1
50,21:3
50,22:3
50,24:2
50,25:2
50,26:3
50,27:2
50,29:3
50,30:1
50,31:3
50,32:1
50,33:1
50,34:1
50,35:1
50,38:3
50,39:3
50,42:3
50,43:3
50,46:2
50,47:1
50,48:3
50,49:1
50,54:3
50,56:1
50,57:1
50,58:3
50,60:2
50,61:1
50,62:3
50,64:1
50,65:3
51,1:1
51,2:1
51,3:1
51,4:1
51,5:1
51,6:2
51,8:2
51,10:2
51,11:1
51,12:1
51,13:1
51,14:1
51,15:1
51,16:1
51,17:1
51,18:2
51,19:3
51,20:1
51,21:3
51,22:3
51,24:2
51,25:2
51,26:3
51,27:2
51,29:3
51,30:1
51,31:3
51,32:1
51,33:1
51,34:1
51,35:1
51,38:3
51,39:3
51,42:3
51,43:3
51,46:2
51,47:1
51,48:3
51,49:1
51,54:3
51,56:1
51,57:1
51,58:3
51,60:2
51,61:1
51,62:3
51,64:1
51,65:3
52,1:1
52,2:1
52,3:1
52,4:1
52,5:1
52,6:2
52,8:2
52,10:2
52,11:1
52,12:1
52,13:1
52,14:1
52,15:1
52,16:1
52,17:1
52,18:2
52,19:3
52,20:1
52,21:3
52,22:3
52,24:2
52,25:2
52,26:3
52,27:2
52,29:3
52,30:1
52,31:3
52,32:1
52,33:1
52,34:1
52,35:1
52,38:3
52,39:3
52,42:3
52,43:3
52,46:2
52,47:1
52,48:3
52,49:1
52,54:3
52,56:1
52,57:1
52,58:3
52,60:2
52,61:1
52,62:3
52,64:1
52,65:3
55,1:1
55,2:1
55,3:1
55,4:1
55,5:1
55,6:2
55,8:2
55,10:2
55,11:1
55,12:1
55,13:1
55,14:1
55,15:1
55,16:1
55,17:1
55,18:2
55,19:3
55,20:1
55,21:3
55,22:3
55,24:2
55,25:2
55,26:3
55,27:2
55,29:3
55,30:1
55,31:3
55,32:1
55,33:1
55,34:1
55,35:1
55,38:3
55,39:3
55,42:3
55,43:3
55,46:2
55,47:1
55,48:3
55,49:1
55,53:3
55,54:3
55,68:3
55,70:2
55,71:2
55,72:2
55,80:3
56,6:1
56,8:1
56,10:1
56,18:1
56,19:2
56,21:2
56,22:2
56,24:1
56,25:1
56,26:2
56,27:1
56,29:2
56,31:2
56,38:2
56,39:2
56,42:2
56,43:2
56,46:1
56,48:2
56,53:2
56,54:2
56,68:2
56,70:1
56,71:1
56,72:1
56,80:2
57,6:1
57,8:1
57,10:1
57,18:1
57,19:2
57,21:2
57,22:2
57,24:1
57,25:1
57,26:2
57,27:1
57,29:2
57,31:2
57,38:2
57,39:2
57,42:2
57,43:2
57,46:1
57,48:2
57,53:2
57,54:2
57,68:2
57,70:1
57,71:1
57,72:1
57,80:2
59,1:1
59,2:1
59,3:1
59,4:1
59,5:1
59,6:2
59,8:2
59,10:2
59,11:1
59,12:1
59,13:1
59,14:1
59,15:1
59,16:1
59,17:1
59,18:2
59,19:3
59,20:1
59,21:3
59,22:3
59,24:2
59,25:2
59,26:3
59,27:2
59,29:3
59,30:1
59,31:3
59,32:1
59,33:1
59,34:1
59,35:1
59,38:3
59,39:3
59,42:3
59,43:3
59,46:2
59,47:1
59,48:3
59,49:1
59,53:3
59,54:3
59,56:1
59,57:1
59,58:3
59,60:2
59,61:1
59,62:3
59,64:1
59,65:3
59,68:3
59,70:2
59,71:2
59,72:2
59,80:3
60,19:1
60,21:1
60,22:1
60,26:1
60,29:1
60,31:1
60,38:1
60,39:1
60,42:1
60,43:1
60,48:1
60,53:1
60,54:1
60,58:1
60,62:1
60,65:1
60,68:1
60,80:1
61,6:1
61,8:1
61,10:1
61,18:1
61,19:2
61,21:2
61,22:2
61,24:1
61,25:1
61,26:2
61,27:1
61,29:2
61,31:2
61,38:2
61,39:2
61,42:2
61,43:2
61,46:1
61,48:2
61,53:2
61,54:2
61,58:2
61,60:1
61,62:2
61,65:2
61,68:2
61,70:1
61,71:1
61,72:1
61,80:2
63,1:1
63,2:1
63,3:1
63,4:1
63,5:1
63,6:2
63,8:2
63,10:2
63,11:1
63,12:1
63,13:1
63,14:1
63,15:1
63,16:1
63,17:1
63,18:2
63,19:3
63,20:1
63,21:3
63,22:3
63,24:2
63,25:2
63,26:3
63,27:2
63,29:3
63,30:1
63,31:3
63,32:1
63,33:1
63,34:1
63,35:1
63,38:3
63,39:3
63,42:3
63,43:3
63,46:2
63,47:1
63,48:3
63,49:1
63,53:3
63,54:3
63,56:1
63,57:1
63,58:3
63,60:2
63,61:1
63,62:3
63,64:1
63,65:3
63,68:3
63,70:2
63,71:2
63,72:2
63,80:3
64,6:1
64,8:1
64,10:1
64,18:1
64,19:2
64,21:2
64,22:2
64,24:1
64,25:1
64,26:2
64,27:1
64,29:2
64,31:2
64,38:2
64,39:2
64,42:2
64,43:2
64,46:1
64,48:2
64,53:2
64,54:2
64,58:2
64,60:1
64,62:2
64,65:2
64,68:2
64,70:1
64,71:1
64,72:1
64,80:2
66,1:1
66,2:1
66,3:1
66,4:1
66,5:1
66,6:2
66,8:2
66,10:2
66,11:1
66,12:1
66,13:1
66,14:1
66,15:1
66,16:1
66,17:1
66,18:2
66,19:3
66,20:1
66,21:3
66,22:3
66,24:2
66,25:2
66,26:3
66,27:2
66,29:3
66,30:1
66,31:3
66,32:1
66,33:1
66,34:1
66,35:1
66,38:3
66,39:3
66,42:3
66,43:3
66,46:2
66,47:1
66,48:3
66,49:1
66,53:3
66,54:3
66,56:1
66,57:1
66,58:3
66,60:2
66,61:1
66,62:3
66,64:1
66,65:3
66,68:3
66,70:2
66,71:2
66,72:2
66,80:3
67,1:1
67,2:1
67,3:1
67,4:1
67,5:1
67,6:2
67,8:2
67,10:2
67,11:1
67,12:1
67,13:1
67,14:1
67,15:1
67,16:1
67,17:1
67,18:2
67,19:3
67,20:1
67,21:3
67,22:3
67,24:2
67,25:2
67,26:3
67,27:2
67,29:3
67,30:1
67,31:3
67,32:1
67,33:1
67,34:1
67,35:1
67,38:3
67,39:3
67,42:3
67,43:3
67,46:2
67,47:1
67,48:3
67,49:1
67,53:3
67,54:3
67,56:1
67,57:1
67,58:3
67,60:2
67,61:1
67,62:3
67,64:1
67,65:3
67,68:3
67,70:2
67,71:2
67,72:2
67,80:3
69,1:1
69,2:1
69,3:1
69,4:1
69,5:1
69,6:2
69,8:2
69,10:2
69,11:1
69,12:1
69,13:1
69,14:1
69,15:1
69,16:1
69,17:1
69,18:2
69,19:3
69,20:1
69,21:3
69,22:3
69,24:2
69,25:2
69,26:3
69,27:2
69,29:3
69,30:1
69,31:3
69,32:1
69,33:1
69,34:1
69,35:1
69,38:3
69,39:3
69,42:3
69,43:3
69,46:2
69,47:1
69,48:3
69,49:1
69,53:3
69,54:3
69,56:1
69,57:1
69,58:3
69,60:2
69,61:1
69,62:3
69,64:1
69,65:3
69,68:3
69,70:2
69,71:2
69,73:2
69,74:2
69,75:2
69,76:3
69,77:2
70,19:1
70,21:1
70,22:1
70,26:1
70,29:1
70,31:1
70,38:1
70,39:1
70,42:1
70,43:1
70,48:1
70,53:1
70,54:1
70,58:1
70,62:1
70,65:1
70,68:1
70,76:1
71,19:1
71,21:1
71,22:1
71,26:1
71,29:1
71,31:1
71,38:1
71,39:1
71,42:1
71,43:1
71,48:1
71,53:1
71,54:1
71,58:1
71,62:1
71,65:1
71,68:1
71,80:1
72,19:1
72,21:1
72,22:1
72,26:1
72,29:1
72,31:1
72,38:1
72,39:1
72,42:1
72,43:1
72,48:1
72,53:1
72,54:1
72,58:1
72,62:1
72,65:1
72,68:1
72,76:1
73,19:1
73,21:1
73,22:1
73,26:1
73,29:1
73,31:1
73,38:1
73,39:1
73,42:1
73,43:1
73,48:1
73,53:1
73,54:1
73,58:1
73,62:1
73,65:1
73,68:1
73,80:1
74,19:1
74,21:1
74,22:1
74,26:1
74,29:1
74,31:1
74,38:1
74,39:1
74,42:1
74,43:1
74,48:1
74,53:1
74,54:1
74,58:1
74,62:1
74,65:1
74,68:1
74,80:1
75,19:1
75,21:1
75,22:1
75,26:1
75,29:1
75,31:1
75,38:1
75,39:1
75,42:1
75,43:1
75,48:1
75,53:1
75,54:1
75,58:1
75,62:1
75,65:1
75,68:1
75,76:1
75,80:1
77,19:1
77,21:1
77,22:1
77,26:1
77,29:1
77,31:1
77,38:1
77,39:1
77,42:1
77,43:1
77,48:1
77,53:1
77,54:1
77,58:1
77,62:1
77,65:1
77,68:1
77,76:1
77,80:1
79,6:1
79,8:1
79,10:1
79,18:1
79,19:2
79,21:2
79,22:2
79,24:1
79,25:1
79,26:2
79,27:1
79,29:2
79,31:2
79,38:2
79,39:2
79,42:2
79,43:2
79,46:1
79,48:2
79,53:2
79,54:2
79,58:2
79,60:1
79,62:2
79,65:2
79,68:2
79,70:1
79,71:1
79,72:1
79,73:1
79,74:1
79,75:1
79,76:2
79,77:1
79,78:2
79,80:2
81,6:1
81,8:1
81,10:1
81,18:1
81,19:2
81,21:2
81,22:2
81,24:1
81,25:1
81,26:2
81,27:1
81,29:2
81,31:2
81,38:2
81,39:2
81,42:2
81,43:2
81,46:1
81,48:2
81,53:2
81,54:2
81,58:2
81,60:1
81,62:2
81,65:2
81,68:2
81,70:1
81,71:1
81,72:1
81,73:1
81,74:1
81,75:1
81,76:2
81,77:1
81,78:2
81,80:2
84,6:1
84,8:1
84,10:1
84,18:1
84,19:2
84,21:2
84,22:2
84,24:1
84,25:1
84,26:2
84,27:1
84,29:2
84,31:2
84,38:2
84,39:2
84,42:2
84,43:2
84,46:1
84,48:2
84,53:2
84,54:2
84,58:2
84,60:1
84,62:2
84,65:2
84,68:2
84,70:1
84,71:1
84,72:1
84,73:1
84,74:1
84,75:1
84,76:2
84,77:1
84,78:2
84,80:2
84,82:2
84,83:2
84,85:2
87,6:1
87,8:1
87,10:1
87,18:1
87,19:2
87,21:2
87,22:2
87,24:1
87,25:1
87,26:2
87,27:1
87,29:2
87,31:2
87,38:2
87,39:2
87,42:2
87,43:2
87,46:1
87,48:2
87,53:2
87,54:2
87,58:2
87,60:1
87,62:2
87,65:2
87,68:2
87,70:1
87,71:1
87,72:1
87,73:1
87,74:1
87,75:1
87,76:2
87,77:1
87,78:2
87,80:2
87,82:2
87,83:2
87,85:2
87,86:2
88,6:1
88,8:1
88,10:1
88,18:1
88,19:2
88,21:2
88,22:2
88,24:1
88,25:1
88,26:2
88,27:1
88,29:2
88,31:2
88,38:2
88,39:2
88,42:2
88,43:2
88,46:1
88,48:2
88,53:2
88,54:2
88,58:2
88,60:1
88,62:2
88,65:2
88,68:2
88,70:1
88,71:1
88,72:1
88,73:1
88,74:1
88,75:1
88,76:2
88,77:1
88,78:2
88,80:2
88,82:2
88,83:2
88,85:2
88,86:2
89,1:1
89,2:1
89,3:1
89,4:1
89,5:1
89,6:2
89,8:2
89,10:2
89,11:1
89,12:1
89,13:1
89,14:1
89,15:1
89,16:1
89,17:1
89,18:2
89,19:3
89,20:1
89,21:3
89,22:3
89,24:2
89,25:2
89,26:3
89,27:2
89,29:3
89,30:1
89,31:3
89,32:1
89,33:1
89,34:1
89,35:1
89,38:3
89,39:3
89,42:3
89,43:3
89,46:2
89,47:1
89,48:3
89,49:1
89,53:3
89,54:3
89,56:1
89,57:1
89,58:3
89,60:2
89,61:1
89,62:3
89,64:1
89,65:3
89,68:3
89,70:2
89,71:2
89,72:2
89,73:2
89,74:2
89,75:2
89,76:3
89,77:2
89,78:3
89,79:1
89,80:3
89,81:1
89,82:3
89,83:3
89,84:1
89,85:3
89,86:3
89,87:1
89,88:1

<end>

<optimal SALBP-1 value>
31


<rand seed>
467321153

<Lower Bounds>
Lm1=31
Lms1=31
Lm2=22
Lm3=22
Lm4=31
Best=31

<Optimal Stations (Iterations: 10)>
43
